100
32
9
26
2
17
4
8
25
3
6
28
16
2
24
24
4
14
7
24
24
30
15
25
4
7
18
6
29
11
6
6
23
11
9
13
10
23
19
24
6
2
23
19
12
29
26
12
25
3
12
13
30
6
22
8
8
17
20
15
23
13
14
5
30
16
5
25
18
4
8
18
16
30
7
4
15
9
12
8
16
6
15
22
12
4
25
27
25
22
29
16
23
14
1
2
5
1
16
28
30
25